Version identifier: 22.1.0.0 | 2022-03-09 | 1a383f8ce
CPXPARAM_Read_DataCheck                          1
CPXPARAM_TimeLimit                               600
Tried aggregator 3 times.
MIP Presolve eliminated 69452 rows and 6570 columns.
MIP Presolve modified 885 coefficients.
Aggregator did 64012 substitutions.
Reduced MIP has 7483 rows, 65928 columns, and 139469 nonzeros.
Reduced MIP has 65894 binaries, 34 generals, 0 SOSs, and 0 indicators.
Presolve time = 0.80 sec. (755.46 ticks)
Tried aggregator 1 time.
Detecting symmetries...
Reduced MIP has 7483 rows, 65928 columns, and 139469 nonzeros.
Reduced MIP has 65894 binaries, 34 generals, 0 SOSs, and 0 indicators.
Presolve time = 0.14 sec. (104.83 ticks)
Probing fixed 51 vars, tightened 0 bounds.
Probing changed sense of 13 constraints.
Probing time = 0.18 sec. (18.23 ticks)
Clique table members: 133746.
MIP emphasis: balance optimality and feasibility.
MIP search method: dynamic search.
Parallel mode: deterministic, using up to 8 threads.
Root relaxation solution time = 0.96 sec. (532.76 ticks)

        Nodes                                         Cuts/
   Node  Left     Objective  IInf  Best Integer    Best Bound    ItCnt     Gap

      0     0       34.3824  5443                     34.3824       28         
      0     0       54.0000   630                    Cuts: 40    11378         
      0     0       54.0000   715                    Cuts: 54    17605         
      0     0       54.0000   667                ZeroHalf: 44    23850         
      0     0       54.0000   674                ZeroHalf: 32    31706         
Heuristic still looking.
Heuristic still looking.
Heuristic still looking.
Heuristic still looking.
*     0+    0                           64.0000       54.0000            15.62%
*     0+    0                           63.0000       54.0000            14.29%
*     0+    0                           59.0000       54.0000             8.47%
      0     2       54.0000   674       59.0000       54.0000    31706    8.47%
Elapsed time = 144.54 sec. (91793.02 ticks, tree = 0.02 MB, solutions = 3)
      1     3       54.0000   647       59.0000       54.0000    42371    8.47%
      2     4       54.0000   653       59.0000       54.0000    50057    8.47%
*     3+    2                           58.0000       54.0000             6.90%
      3     4       54.0000   647       58.0000       54.0000    48571    6.90%
      4     3       54.0000   669       58.0000       54.0000    41741    6.90%
      5     5       54.0000   564       58.0000       54.0000    56983    6.90%
      7     6       54.0000   701       58.0000       54.0000    63036    6.90%
*     8+    7                           57.0000       54.0000             5.26%
      8     9       54.0000   597       57.0000       54.0000    80804    5.26%
     10     6       54.0000   540       57.0000       54.0000    62658    5.26%
     11     7       54.0000   648       57.0000       54.0000    73372    5.26%
     14    16       54.0000   700       57.0000       54.0000   140539    5.26%
Elapsed time = 227.60 sec. (117388.99 ticks, tree = 0.11 MB, solutions = 6)
     19    10       54.0000   624       57.0000       54.0000    93269    5.26%
     22    15       54.0435  1197       57.0000       54.0000   162678    5.26%
     26    16       54.0435  1736       57.0000       54.0000   166835    5.26%
     33    21       54.0000   624       57.0000       54.0000   183791    5.26%
     36    20       54.0000   898       57.0000       54.0000   145409    5.26%
     43    29       54.0000   659       57.0000       54.0000   270305    5.26%
     49    21       54.0000   638       57.0000       54.0000   161904    5.26%
     56    44       54.0000   771       57.0000       54.0000   428016    5.26%
     62    35       54.0000  1227       57.0000       54.0000   332842    5.26%
     70    48       54.0000   885       57.0000       54.0000   489523    5.26%
Elapsed time = 284.75 sec. (128735.84 ticks, tree = 0.56 MB, solutions = 6)
     82    47       54.0000   645       57.0000       54.0000   460123    5.26%
     89    75       54.0000   724       57.0000       54.0000   682614    5.26%
    102    62       54.0476  1375       57.0000       54.0000   593211    5.26%
    112   100       54.0000   283       57.0000       54.0000   859597    5.26%
    124   104       54.1429   214       57.0000       54.0000   875178    5.26%
    136    82       54.0000   349       57.0000       54.0000   758493    5.26%
    146   116       54.1526   718       57.0000       54.0000   940636    5.26%
    168   115       54.0000  1117       57.0000       54.0000   942756    5.26%
*   169   148      integral     0       56.0000       54.0000  1011164    3.57%
    177   147       54.0000   269       56.0000       54.0000  1023937    3.57%
    187   172       54.0000   484       56.0000       54.0000  1156386    3.57%
Elapsed time = 352.13 sec. (138844.89 ticks, tree = 2.76 MB, solutions = 7)
    194   149       54.1000   338       56.0000       54.0000  1039797    3.57%
    210   152       54.1250   357       56.0000       54.0000  1054967    3.57%
    226   199       54.0000   321       56.0000       54.0000  1419924    3.57%
    242   173       54.0000   750       56.0000       54.0000  1130602    3.57%
    260   204       54.9167   186       56.0000       54.0000  1240602    3.57%
    270   203       54.2000   310       56.0000       54.0000  1247587    3.57%
    302   210       54.0000   354       56.0000       54.0000  1454369    3.57%
    321   212       54.0000   606       56.0000       54.0000  1499082    3.57%
    333   215       54.0000   434       56.0000       54.0000  1512186    3.57%
    346   284       54.0000   291       56.0000       54.0000  1629403    3.57%
Elapsed time = 406.10 sec. (148795.51 ticks, tree = 5.02 MB, solutions = 7)
    364   282       54.2308   555       56.0000       54.0000  1579243    3.57%
    380   275       54.0000   364       56.0000       54.0000  1625314    3.57%
    407   301       54.3333   208       56.0000       54.0000  1662025    3.57%
    438   309    infeasible             56.0000       54.0000  1775563    3.57%
    466   386       54.3333   264       56.0000       54.0000  2001264    3.57%
    493   395       54.8519   252       56.0000       54.0000  2013568    3.57%
    535   374       54.3778   259       56.0000       54.0000  1984158    3.57%
    563   392       54.0000   481       56.0000       54.0000  2097787    3.57%
    587   419       54.4571   870       56.0000       54.0000  2172781    3.57%
    618   454       55.0000   348       56.0000       54.0000  2197149    3.57%
Elapsed time = 466.75 sec. (158684.07 ticks, tree = 9.44 MB, solutions = 7)
    670   491       55.0000   359       56.0000       54.0000  2199215    3.57%
    722   501       54.5333   175       56.0000       54.0000  2334513    3.57%
    761   624       54.5833   219       56.0000       54.0000  2409866    3.57%
    793   624       54.0357  1042       56.0000       54.0000  2419851    3.57%
    815   672       54.0000   233       56.0000       54.0000  2533246    3.57%
    841   640       54.3333   218       56.0000       54.0000  2421963    3.57%
    871   649       54.0000   329       56.0000       54.0000  2522106    3.57%
    889   568       54.0909   330       56.0000       54.0000  2412413    3.57%
    925   779       54.2500   126       56.0000       54.0000  2683128    3.57%
    982   719       54.1111   446       56.0000       54.0000  2646887    3.57%
Elapsed time = 527.37 sec. (168443.17 ticks, tree = 17.85 MB, solutions = 7)
*   995+  766                           55.0000       54.0000             1.82%
   1037   727       54.2679   291       55.0000       54.0000  2650362    1.82%
Starting limited solution polishing.
   1109   281       54.0000   250       55.0000       54.0000  2771189    1.82%
   1206   265       54.0000   291       55.0000       54.0000  2787357    1.82%
   1299   283        cutoff             55.0000       54.0000  2795825    1.82%
   1412   851       54.5833   132       55.0000       54.0000  2771996    1.82%
   1556   266       54.0000   135       55.0000       54.0000  2848530    1.82%
   1742   276       54.0000   328       55.0000       54.0000  2815105    1.82%
   1897   300       54.0000   421       55.0000       54.0000  2815390    1.82%
   2115   253        cutoff             55.0000       54.0000  2848625    1.82%
   2319   264       54.0000   152       55.0000       54.0000  2935864    1.82%
Elapsed time = 570.77 sec. (178110.69 ticks, tree = 4.12 MB, solutions = 8)
   2501   329        cutoff             55.0000       54.0000  3104021    1.82%
   2669   321       54.0000   205       55.0000       54.0000  3090649    1.82%
   2869   367       54.0000   183       55.0000       54.0000  3245393    1.82%
   3042   360       54.0000   197       55.0000       54.0000  3251189    1.82%
   3244   368       54.0000   199       55.0000       54.0000  3288876    1.82%
   3423   410       54.0000   324       55.0000       54.0000  3324059    1.82%
   3631   521        cutoff             55.0000       54.0000  3513140    1.82%
   3838   518        cutoff             55.0000       54.0000  3434898    1.82%
   4053   622        cutoff             55.0000       54.0000  3592603    1.82%

Clique cuts applied:  1
Mixed integer rounding cuts applied:  1
Zero-half cuts applied:  88
Lift and project cuts applied:  4
Gomory fractional cuts applied:  22

Root node processing (before b&c):
  Real time             =  144.36 sec. (91729.45 ticks)
Parallel b&c, 8 threads:
  Real time             =  455.70 sec. (95675.84 ticks)
  Sync time (average)   =  129.99 sec.
  Wait time (average)   =    0.00 sec.
                          ------------
Total (root+branch&cut) =  600.06 sec. (187405.29 ticks)
